(declare-fun bvlambda_1_ ()Bool         )
(declare-fun bvlambda_3_ () (_ BitVec 7))
(declare-fun a47 () (Array (_ BitVec 4) (_ BitVec 10)))
(declare-fun a52 () (Array (_ BitVec 1) (_ BitVec 10)))
(assert
(let (($e11 (_ bv0 5)))
(let (($e24 (_ bv0 4)))
(let (($e99 (concat $e11 bvlambda_3_)))
(let (($e103 (select a47        $e24)))
(let (($e112 (store a52        bvlambda_1_ $e103)))
(let (($e113 (select $e112 true       )))
(let (($e140 (   extract      $e113)))
(let (($e141 (store a52 false $e113)))
(let (($e142 (select $e141 $e140)))
(let (($e143 (concat false $e142)))
(let (($e165 ((_ extract 10 0) $e99 )))
(let (($e166                   $e143 ))
(let (($e167      (=     $e166 $e165)         ))
                  (= $e167 false        )
                                                                                                                                                                                                                                                                                                     )))                     ))))                          ))        )   )                                                              )            )          )
